<?xml version = "1.0" standalone="yes"?>
<!-- This file has been generated by DOcplex version 2.23.222  -->
<CPLEXSolution version="1.0">
 <header
   problemName="CVRP"
   objectiveValue="6854.2"
  />
 <variables>
  <variable name="x_0_1" index="0" value="1.00000"/>
  <variable name="x_0_2" index="1" value="1.00000"/>
  <variable name="x_0_4" index="3" value="1.00000"/>
  <variable name="x_0_5" index="4" value="1.00000"/>
  <variable name="x_0_8" index="7" value="1.00000"/>
  <variable name="x_0_12" index="11" value="1.00000"/>
  <variable name="x_0_13" index="12" value="1.00000"/>
  <variable name="x_0_14" index="13" value="1.00000"/>
  <variable name="x_0_15" index="14" value="1.00000"/>
  <variable name="x_1_16" index="32" value="1.00000"/>
  <variable name="x_2_0" index="34" value="1.00000"/>
  <variable name="x_3_17" index="67" value="1.00000"/>
  <variable name="x_4_3" index="71" value="1.00000"/>
  <variable name="x_5_9" index="93" value="1.00000"/>
  <variable name="x_6_0" index="102" value="1.00000"/>
  <variable name="x_7_0" index="119" value="1.00000"/>
  <variable name="x_8_0" index="136" value="1.00000"/>
  <variable name="x_9_10" index="162" value="1.00000"/>
  <variable name="x_10_11" index="180" value="1.00000"/>
  <variable name="x_11_0" index="187" value="1.00000"/>
  <variable name="x_12_7" index="211" value="1.00000"/>
  <variable name="x_13_6" index="227" value="1.00000"/>
  <variable name="x_14_0" index="238" value="1.00000"/>
  <variable name="x_15_0" index="255" value="1.00000"/>
  <variable name="x_16_0" index="272" value="1.00000"/>
  <variable name="x_17_0" index="289" value="1.00000"/>
  <variable name="u_1" index="306" value="39.00000"/>
  <variable name="u_2" index="307" value="41.00000"/>
  <variable name="u_3" index="308" value="35.00000"/>
  <variable name="u_4" index="309" value="22.00000"/>
  <variable name="u_5" index="310" value="6.00000"/>
  <variable name="u_6" index="311" value="50.00000"/>
  <variable name="u_7" index="312" value="44.00000"/>
  <variable name="u_8" index="313" value="44.00000"/>
  <variable name="u_9" index="314" value="34.00000"/>
  <variable name="u_10" index="315" value="41.00000"/>
  <variable name="u_11" index="316" value="46.00000"/>
  <variable name="u_12" index="317" value="24.00000"/>
  <variable name="u_13" index="318" value="20.00000"/>
  <variable name="u_14" index="319" value="37.00000"/>
  <variable name="u_15" index="320" value="32.00000"/>
  <variable name="u_16" index="321" value="57.00000"/>
  <variable name="u_17" index="322" value="51.00000"/>
 </variables>
</CPLEXSolution>
